data/solutions/planning/wellformed/intermediate/highest_rank_objective/wellformed_intermediate_instance45_cplex.sol
Elapsed time: 32.82
Nodes explored: 2665
Nodes left: -
Relative gap: -
Upper bound: 142741959.0
Lower bound: -
C[0]=34858.0
C[1]=34858.0
C[2]=34857.0
C[3]=34856.0
C[4]=34856.0
C[5]=34856.0
C[6]=34856.0
C[7]=34856.0
C[8]=34855.0
C[9]=34855.0
C[10]=34855.0
C[11]=34853.0
y[0]=3
y[1]=10
y[2]=9
y[3]=0
y[4]=2
y[5]=4
y[6]=9
y[7]=8
y[8]=8
y[9]=4
y[10]=6
y[11]=3
y[12]=2
y[13]=8
y[14]=1
y[15]=3
y[16]=8
y[17]=8
y[18]=5
y[19]=8
y[20]=10
y[21]=8
y[22]=2
y[23]=8
y[24]=7
y[25]=10
y[26]=1
y[27]=10
y[28]=3
y[29]=10
y[30]=8
y[31]=8
y[32]=2
y[33]=11
y[34]=6
y[35]=1
y[36]=5
y[37]=1
y[38]=3
y[39]=6
y[40]=8
y[41]=9
y[42]=2
y[43]=2
y[44]=2
y[45]=4
y[46]=5
y[47]=4
y[48]=4
y[49]=3
y[50]=4
y[51]=1
y[52]=6
y[53]=2
y[54]=5
y[55]=11
y[56]=6
y[57]=3
y[58]=1
y[59]=0
y[60]=5
y[61]=1
y[62]=11
y[63]=5
y[64]=5
y[65]=5
y[66]=5
y[67]=0
y[68]=2
y[69]=3
y[70]=4
y[71]=0
y[72]=5
y[73]=1
y[74]=5
y[75]=4
y[76]=9
y[77]=1
y[78]=5
y[79]=9
y[80]=2
y[81]=0
y[82]=2
y[83]=5
y[84]=5
y[85]=9
y[86]=1
y[87]=11
y[88]=5
y[89]=7
y[90]=3
y[91]=9
y[92]=9
y[93]=5
y[94]=4
y[95]=4
y[96]=5
y[97]=11
y[98]=2
y[99]=0
y[100]=5
y[101]=5
y[102]=7
y[103]=4
y[104]=5
y[105]=4
y[106]=8
y[107]=11
y[108]=3
y[109]=9
y[110]=9
y[111]=2
y[112]=8
y[113]=0
y[114]=9
y[115]=2
y[116]=7
y[117]=0
y[118]=6
y[119]=10
y[120]=7
y[121]=10
y[122]=10
y[123]=1
y[124]=7
y[125]=2
y[126]=9
y[127]=4
y[128]=1
y[129]=4
y[130]=2
y[131]=2
y[132]=10
y[133]=1
y[134]=1
y[135]=5
y[136]=10
y[137]=1
y[138]=4
y[139]=4
y[140]=8
y[141]=4
y[142]=10
y[143]=9
y[144]=0
y[145]=10
y[146]=3
y[147]=9
y[148]=6
y[149]=9
y[150]=6
y[151]=1
y[152]=8
y[153]=3
y[154]=11
y[155]=10
y[156]=5
y[157]=8
y[158]=11
y[159]=11
y[160]=2
y[161]=10
y[162]=9
y[163]=6
y[164]=6
y[165]=5
y[166]=6
y[167]=10
y[168]=6
y[169]=6
y[170]=3
y[171]=9
y[172]=10
y[173]=5
y[174]=11
y[175]=5
y[176]=3
y[177]=7
y[178]=0
y[179]=9
y[180]=1
y[181]=11
y[182]=1
y[183]=5
y[184]=6
y[185]=7
y[186]=3
y[187]=1
y[188]=8
y[189]=7
y[190]=8
y[191]=8
y[192]=3
y[193]=1
y[194]=7
y[195]=5
y[196]=6
y[197]=9
y[198]=11
y[199]=8
y[200]=3
y[201]=9
y[202]=4
y[203]=6
y[204]=10
y[205]=9
y[206]=10
y[207]=11
y[208]=8
y[209]=10
y[210]=6
y[211]=2
y[212]=2
y[213]=9
y[214]=5
y[215]=10
y[216]=10
y[217]=3
y[218]=0
y[219]=9
y[220]=5
y[221]=10
y[222]=7
y[223]=5
y[224]=3
y[225]=9
y[226]=1
y[227]=4
y[228]=4
y[229]=5
y[230]=4
y[231]=4
y[232]=9
y[233]=6
y[234]=3
y[235]=7
y[236]=8
y[237]=5
y[238]=4
y[239]=5
y[240]=1
y[241]=2
y[242]=8
y[243]=3
y[244]=3
y[245]=7
y[246]=9
y[247]=6
y[248]=10
y[249]=7
y[250]=2
y[251]=3
y[252]=5
y[253]=0
y[254]=5
y[255]=4
y[256]=4
y[257]=7
y[258]=0
y[259]=7
y[260]=10
y[261]=5
y[262]=11
y[263]=3
y[264]=9
y[265]=5
y[266]=2
y[267]=4
y[268]=0
y[269]=9
y[270]=9
y[271]=10
y[272]=0
y[273]=11
y[274]=9
y[275]=4
y[276]=1
y[277]=7
y[278]=10
y[279]=11
y[280]=9
y[281]=9
y[282]=4
y[283]=6
y[284]=10
y[285]=3
y[286]=11
y[287]=4
y[288]=9
y[289]=9
y[290]=1
y[291]=8
y[292]=9
y[293]=0
y[294]=7
y[295]=8
y[296]=8
y[297]=5
y[298]=3
y[299]=5
y[300]=2
y[301]=10
y[302]=1
y[303]=7
y[304]=8
y[305]=3
y[306]=11
y[307]=9
y[308]=9
y[309]=8
y[310]=1
y[311]=4
y[312]=4
y[313]=9
y[314]=8
y[315]=9
y[316]=9
y[317]=9
y[318]=6
y[319]=3
y[320]=10
y[321]=0
y[322]=5
y[323]=9
y[324]=4
y[325]=6
y[326]=11
y[327]=9
y[328]=7
y[329]=0
y[330]=3
y[331]=9
y[332]=0
y[333]=7
y[334]=9
y[335]=0
y[336]=9
y[337]=9
y[338]=2
y[339]=9
y[340]=9
y[341]=4
y[342]=7
y[343]=4
y[344]=9
y[345]=7
y[346]=4
y[347]=1
y[348]=9
y[349]=9
y[350]=1
y[351]=0
y[352]=8
y[353]=8
y[354]=3
y[355]=9
y[356]=8
y[357]=6
y[358]=9
y[359]=2
y[360]=11
y[361]=4
y[362]=4
y[363]=3
y[364]=4
y[365]=9
y[366]=2
y[367]=8
y[368]=9
y[369]=8
y[370]=6
y[371]=10
y[372]=6
y[373]=2
y[374]=7
y[375]=6
y[376]=6
y[377]=11
y[378]=6
y[379]=8
y[380]=2
y[381]=9
y[382]=0
y[383]=9
y[384]=0
y[385]=2
y[386]=7
y[387]=8
y[388]=5
y[389]=8
y[390]=9
y[391]=11
y[392]=9
y[393]=10
y[394]=11
y[395]=8
y[396]=10
y[397]=2
y[398]=8
y[399]=9
