data/solutions/planning/wellformed/intermediate/highest_rank_objective/wellformed_intermediate_instance45_cplex.log
Found incumbent of value 418271.000000 after 0.00 sec. (0.39 ticks)
Tried aggregator 2 times.
Aggregator did 12 substitutions.
Reduced MIP has 412 rows, 4801 columns, and 9612 nonzeros.
Reduced MIP has 4800 binaries, 0 generals, 0 SOSs, and 0 indicators.
Presolve time = 0.01 sec. (7.24 ticks)
Tried aggregator 1 time.
Reduced MIP has 412 rows, 4801 columns, and 9612 nonzeros.
Reduced MIP has 4800 binaries, 1 generals, 0 SOSs, and 0 indicators.
Presolve time = 0.01 sec. (4.77 ticks)
Probing time = 0.00 sec. (2.10 ticks)
Clique table members: 400.
MIP emphasis: balance optimality and feasibility.
MIP search method: dynamic search.
Parallel mode: none, using 1 thread.
Root relaxation solution time = 0.02 sec. (23.46 ticks)

        Nodes                                         Cuts/
   Node  Left     Objective  IInf  Best Integer    Best Bound    ItCnt     Gap

*     0+    0                       418271.0000        0.0000           100.00%
      0     0    34855.9167    23   418271.0000    34855.9167      411   91.67%
*     0+    0                        35875.0000    34855.9167             2.84%
      0     0    34856.0000    24    35875.0000      Fract: 7      433    2.84%
*     0+    0                        35503.0000    34856.0000             1.82%
      0     0    34856.0000    24    35503.0000      Cuts: 19      471    1.82%
*     0+    0                        35499.0000    34856.0000             1.81%
*     0+    0                        35439.0000    34856.0000             1.65%
      0     2    34856.0000    20    35439.0000    34856.0000      481    1.65%
Elapsed time = 0.29 sec. (269.40 ticks, tree = 0.01 MB, solutions = 5)
*    10+   10                        35325.0000    34856.0000             1.33%
    161   163    34856.0000    16    35325.0000    34856.0000     1270    1.33%
    162   164    34856.0000    16    35325.0000    34856.0000     1273    1.33%
    163   165    34856.0000    15    35325.0000    34856.0000     1277    1.33%
    164   166    34856.0000    14    35325.0000    34856.0000     1279    1.33%
    165   167    34856.0000    15    35325.0000    34856.0000     1285    1.33%
    166   168    34856.0000    17    35325.0000    34856.0000     1289    1.33%
    167   169    34856.0000    14    35325.0000    34856.0000     1293    1.33%
    168   170    34856.0000    17    35325.0000    34856.0000     1304    1.33%
    169   171    34856.0000    16    35325.0000    34856.0000     1307    1.33%
*   190+  190                        35251.0000    34856.0000             1.12%
*   280+  280                        35197.0000    34856.0000             0.97%
*   310+  310                        35191.0000    34856.0000             0.95%
*   320+  320                        35182.0000    34856.0000             0.93%
*   390+  390                        35180.0000    34856.0000             0.92%
*   440+  440                        35092.0000    34856.0000             0.67%
*   460+  460                        35073.0000    34856.0000             0.62%
*   540+  537                        35044.0000    34856.0000             0.54%
*   580+  575                        35028.0000    34856.0000             0.49%
*   600+  595                        35026.0000    34856.0000             0.49%
    600   597    34856.0000    20    35026.0000    34856.0000     3236    0.49%
Elapsed time = 1.25 sec. (1225.80 ticks, tree = 4.53 MB, solutions = 16)
*   670+  662                        35011.0000    34856.0000             0.44%
*   680+  672                        35003.0000    34856.0000             0.42%
*   690+  681                        34994.0000    34856.0000             0.39%
*   700+  691                        34993.0000    34856.0000             0.39%
*   720+  706                        34978.0000    34856.0000             0.35%
*   730+  714                        34949.0000    34856.0000             0.27%
*   740+  722                        34947.0000    34856.0000             0.26%
*   800+  780                        34935.0000    34856.0000             0.23%
*   800+  780                        34934.0000    34856.0000             0.22%
*   800+  780                        34926.0000    34856.0000             0.20%
*   800+  772                        34905.0000    34856.0000             0.14%
*   910+  872                        34902.0000    34856.0000             0.13%
*   910+  870                        34889.0000    34856.0000             0.09%
*   910+  870                        34888.0000    34856.0000             0.09%
*   910+  870                        34887.0000    34856.0000             0.09%
*   910+  870                        34886.0000    34856.0000             0.09%
    913   875    34856.0000    18    34886.0000    34856.0000     4407    0.09%
    914   875    34856.0000    18    34886.0000    34856.0000     4418    0.09%
    915   876    34856.0000    20    34886.0000    34856.0000     4424    0.09%
    916   877    34856.0000    18    34886.0000    34856.0000     4426    0.09%
    917   878    34856.0000    18    34886.0000    34856.0000     4438    0.09%
    918   879    34856.0000    17    34886.0000    34856.0000     4449    0.09%
    919   880    34856.0000    19    34886.0000    34856.0000     4457    0.09%
    920   880    34856.0000    18    34886.0000    34856.0000     4459    0.09%
    921   881    34856.0000    18    34886.0000    34856.0000     4460    0.09%
    922   881    34856.0000    18    34886.0000    34856.0000     4461    0.09%
Elapsed time = 2.45 sec. (2233.65 ticks, tree = 6.81 MB, solutions = 32)
   1139   996    34856.0000    21    34886.0000    34856.0000     6237    0.09%
   1140   997    34856.0000    20    34886.0000    34856.0000     6239    0.09%
   1141   998    34856.0000    21    34886.0000    34856.0000     6260    0.09%
   1142   999    34856.0000    21    34886.0000    34856.0000     6262    0.09%
   1143   999    34856.0000    20    34886.0000    34856.0000     6268    0.09%
   1144   999    34856.0000    21    34886.0000    34856.0000     6274    0.09%
   1145  1000    34856.0000    21    34886.0000    34856.0000     6282    0.09%
   1146  1000    34856.0000    22    34886.0000    34856.0000     6289    0.09%
   1147  1001    34856.0000    21    34886.0000    34856.0000     6290    0.09%
   1148  1002    34856.0000    21    34886.0000    34856.0000     6291    0.09%
Elapsed time = 3.39 sec. (3216.46 ticks, tree = 7.59 MB, solutions = 32)
   1424  1169    34856.0000    14    34886.0000    34856.0000     8389    0.09%
   1425  1169    34856.0000    14    34886.0000    34856.0000     8401    0.09%
   1426  1170    34856.0000    14    34886.0000    34856.0000     8404    0.09%
   1427  1170    34856.0000    14    34886.0000    34856.0000     8408    0.09%
   1428  1171    34856.0000    16    34886.0000    34856.0000     8421    0.09%
   1429  1171    34856.0000    13    34886.0000    34856.0000     8424    0.09%
   1430  1172    34856.0000    12    34886.0000    34856.0000     8427    0.09%
   1431  1172    34856.0000    13    34886.0000    34856.0000     8430    0.09%
   1432  1173    34856.0000    13    34886.0000    34856.0000     8432    0.09%
   1433  1173    34856.0000    13    34886.0000    34856.0000     8438    0.09%
Elapsed time = 4.29 sec. (4191.37 ticks, tree = 8.86 MB, solutions = 32)
*  1473+  981                        34884.0000    34856.0000             0.08%
*  1513+  871                        34883.0000    34856.0000             0.08%
*  1513+  780                        34882.0000    34856.0000             0.07%
*  1513+  719                        34877.0000    34856.0000             0.06%
*  1513+  676                        34871.0000    34856.0000             0.04%
*  1513+  649                        34870.0000    34856.0000             0.04%
*  1513+  625                        34867.0000    34856.0000             0.03%
*  1513+  612                        34866.0000    34856.0000             0.03%
*  1583+  657                        34863.0000    34856.0000             0.02%
*  1683+  700                        34862.0000    34856.0000             0.02%
   1797   814    34856.0000    15    34862.0000    34856.0000     9957    0.02%
   1798   815    34856.0000    15    34862.0000    34856.0000     9959    0.02%
   1799   816    34856.0000    15    34862.0000    34856.0000     9961    0.02%
   1800   817    34856.0000    15    34862.0000    34856.0000     9963    0.02%
   1801   818    34856.0000    15    34862.0000    34856.0000     9967    0.02%
   1802   819    34856.0000    15    34862.0000    34856.0000     9969    0.02%
   1803   820    34856.0000    15    34862.0000    34856.0000     9970    0.02%
   1804   821    34856.0000    16    34862.0000    34856.0000     9979    0.02%
   1805   822    34856.0000    18    34862.0000    34856.0000     9982    0.02%
   1806   823    34856.0000    16    34862.0000    34856.0000     9986    0.02%
Elapsed time = 5.18 sec. (5167.12 ticks, tree = 6.17 MB, solutions = 42)
*  1833+  842                        34861.0000    34856.0000             0.01%
*  2013+ 1010                        34860.0000    34856.0000             0.01%
   2168  1153    34857.0000    17    34860.0000    34856.0000    11475    0.01%
   2169  1154    34857.0000    16    34860.0000    34856.0000    11478    0.01%
   2170  1155    34857.0000    16    34860.0000    34856.0000    11482    0.01%
   2171  1156    34857.0000    16    34860.0000    34856.0000    11486    0.01%
   2172  1157    34857.0000    17    34860.0000    34856.0000    11490    0.01%
   2173  1158    34857.0000    16    34860.0000    34856.0000    11494    0.01%
   2174  1159    34857.0000    16    34860.0000    34856.0000    11497    0.01%
   2175  1160    34857.0000    16    34860.0000    34856.0000    11500    0.01%
   2176  1161    34857.0000    18    34860.0000    34856.0000    11506    0.01%
   2177  1162    34857.0000    19    34860.0000    34856.0000    11511    0.01%
Elapsed time = 6.22 sec. (6133.96 ticks, tree = 8.86 MB, solutions = 44)
*  2381  1314      integral     0    34859.0000    34856.0000    12169    0.01%

Mixed integer rounding cuts applied:  1

Root node processing (before b&c):
  Real time             =    0.29 sec. (270.50 ticks)
Sequential b&c:
  Real time             =    6.38 sec. (6276.64 ticks)
                          ------------
Total (root+branch&cut) =    6.66 sec. (6547.14 ticks)

Populate: phase II 
Tried aggregator 2 times.
Aggregator did 12 substitutions.
Reduced MIP has 412 rows, 4801 columns, and 9612 nonzeros.
Reduced MIP has 4800 binaries, 0 generals, 0 SOSs, and 0 indicators.
Presolve time = 0.01 sec. (7.24 ticks)
Probing time = 0.00 sec. (2.10 ticks)
Clique table members: 400.
MIP emphasis: balance optimality and feasibility.
MIP search method: dynamic search.
Parallel mode: none, using 1 thread.
Root relaxation solution time = 0.02 sec. (23.46 ticks)

        Nodes                                         Cuts/
   Node  Left     Objective  IInf  Best Integer    Best Bound    ItCnt     Gap

*     0+    0                        34859.0000        0.0000           100.00%
      0     0    34855.9167    23    34859.0000    34855.9167      411    0.01%
      0     2    34856.0000    22    34859.0000    34856.0000      411    0.01%
Elapsed time = 0.51 sec. (376.52 ticks, tree = 0.01 MB, solutions = 70)
      1     3    34856.0000    21    34859.0000    34856.0000      417    0.01%
      2     4    34856.0000    20    34859.0000    34856.0000      423    0.01%
      3     5    34856.0000    20    34859.0000    34856.0000      426    0.01%
      4     6    34856.0000    20    34859.0000    34856.0000      430    0.01%
      5     7    34856.0000    20    34859.0000    34856.0000      438    0.01%
      6     8    34856.0000    19    34859.0000    34856.0000      442    0.01%
      7     9    34856.0000    20    34859.0000    34856.0000      448    0.01%
      8    10    34856.0000    19    34859.0000    34856.0000      451    0.01%
      9    11    34856.0000    19    34859.0000    34856.0000      456    0.01%
     10    12    34856.0000    19    34859.0000    34856.0000      459    0.01%
Elapsed time = 4.36 sec. (2879.12 ticks, tree = 0.07 MB, solutions = 231)
     34    36    34856.0000    21    34859.0000    34856.0000      620    0.01%
     35    37    34856.0000    17    34859.0000    34856.0000      625    0.01%
     36    38    34856.0000    19    34859.0000    34856.0000      633    0.01%
     37    39    34856.0000    18    34859.0000    34856.0000      635    0.01%
     38    40    34856.0000    19    34859.0000    34856.0000      644    0.01%
     39    41    34856.0000    19    34859.0000    34856.0000      647    0.01%
     40    42    34856.0000    19    34859.0000    34856.0000      651    0.01%
     41    43    34856.0000    19    34859.0000    34856.0000      655    0.01%
     42    44    34856.0000    20    34859.0000    34856.0000      664    0.01%
     43    45    34856.0000    19    34859.0000    34856.0000      665    0.01%
Elapsed time = 6.97 sec. (4246.82 ticks, tree = 0.29 MB, solutions = 453)
     62    64    34856.0000    18    34859.0000    34856.0000      782    0.01%
     63    65    34856.0000    18    34859.0000    34856.0000      808    0.01%
     64    66    34856.0000    18    34859.0000    34856.0000      812    0.01%
     65    67    34856.0000    20    34859.0000    34856.0000      818    0.01%
     66    68    34856.0000    21    34859.0000    34856.0000      824    0.01%
     67    69    34856.0000    19    34859.0000    34856.0000      835    0.01%
     68    70    34856.0000    21    34859.0000    34856.0000      843    0.01%
     69    71    34856.0000    19    34859.0000    34856.0000      846    0.01%
     70    72    34856.0000    19    34859.0000    34856.0000      854    0.01%
     71    73    34856.0000    20    34859.0000    34856.0000      862    0.01%
Elapsed time = 9.61 sec. (5649.42 ticks, tree = 0.48 MB, solutions = 694)
     90    92    34856.0000    18    34859.0000    34856.0000      977    0.01%
     91    93    34856.0000    18    34859.0000    34856.0000      979    0.01%
     92    94    34856.0000    18    34859.0000    34856.0000      984    0.01%
     93    95    34856.0000    17    34859.0000    34856.0000      992    0.01%
     94    96    34856.0000    18    34859.0000    34856.0000     1001    0.01%
     95    97    34856.0000    18    34859.0000    34856.0000     1004    0.01%
*    96+   96                        34858.0000    34856.0000             0.01%
     96    98    34856.0000    19    34858.0000    34856.0000     1009    0.01%
     97    99    34856.0000    19    34858.0000    34856.0000     1011    0.01%
     98   100    34856.0000    18    34858.0000    34856.0000     1015    0.01%
     99   101    34856.0000    17    34858.0000    34856.0000     1018    0.01%
Elapsed time = 12.21 sec. (7007.52 ticks, tree = 0.68 MB, solutions = 890)
    124   126    34856.0000    20    34858.0000    34856.0000     1180    0.01%
    125   127    34856.0000    18    34858.0000    34856.0000     1185    0.01%
    126   128    34856.0000    19    34858.0000    34856.0000     1189    0.01%
    127   129    34856.0000    18    34858.0000    34856.0000     1196    0.01%
    128   130    34856.0000    20    34858.0000    34856.0000     1207    0.01%
    129   131    34856.0000    19    34858.0000    34856.0000     1209    0.01%
    130   132    34856.0000    18    34858.0000    34856.0000     1214    0.01%
    131   133    34856.0000    20    34858.0000    34856.0000     1226    0.01%
    132   134    34856.0000    19    34858.0000    34856.0000     1229    0.01%
    133   135    34856.0000    19    34858.0000    34856.0000     1232    0.01%
Elapsed time = 14.79 sec. (8364.11 ticks, tree = 0.91 MB, solutions = 1116)
    159   161    34856.0000    19    34858.0000    34856.0000     1380    0.01%
    160   162    34856.0000    19    34858.0000    34856.0000     1383    0.01%
    161   163    34856.0000    19    34858.0000    34856.0000     1386    0.01%
    162   164    34856.0000    18    34858.0000    34856.0000     1392    0.01%
    163   165    34856.0000    18    34858.0000    34856.0000     1397    0.01%
    164   166    34856.0000    18    34858.0000    34856.0000     1402    0.01%
    165   167    34856.0000    19    34858.0000    34856.0000     1415    0.01%
    166   168    34856.0000    18    34858.0000    34856.0000     1417    0.01%
    167   169    34856.0000    17    34858.0000    34856.0000     1426    0.01%
    168   170    34856.0000    17    34858.0000    34856.0000     1435    0.01%
Elapsed time = 17.31 sec. (9674.88 ticks, tree = 1.15 MB, solutions = 1311)
    194   196    34856.0000    18    34858.0000    34856.0000     1584    0.01%
    195   197    34856.0000    17    34858.0000    34856.0000     1589    0.01%
    196   198    34856.0000    17    34858.0000    34856.0000     1593    0.01%
    197   199    34856.0000    17    34858.0000    34856.0000     1595    0.01%
    198   200    34856.0000    18    34858.0000    34856.0000     1599    0.01%
    199   201    34856.0000    17    34858.0000    34856.0000     1603    0.01%
    200   202    34856.0000    17    34858.0000    34856.0000     1605    0.01%
    201   203    34856.0000    17    34858.0000    34856.0000     1611    0.01%
    202   204    34856.0000    17    34858.0000    34856.0000     1616    0.01%
    203   205    34856.0000    17    34858.0000    34856.0000     1625    0.01%
Elapsed time = 19.87 sec. (11034.68 ticks, tree = 1.40 MB, solutions = 1522)
    229   231    34856.0000    17    34858.0000    34856.0000     1762    0.01%
    230   232    34856.0000    17    34858.0000    34856.0000     1765    0.01%
    231   233    34856.0000    17    34858.0000    34856.0000     1768    0.01%
    232   234    34856.0000    17    34858.0000    34856.0000     1773    0.01%
    233   235    34856.0000    17    34858.0000    34856.0000     1777    0.01%
    234   236    34856.0000    17    34858.0000    34856.0000     1782    0.01%
    235   237    34856.0000    17    34858.0000    34856.0000     1792    0.01%
    236   238    34856.0000    17    34858.0000    34856.0000     1800    0.01%
    237   239    34856.0000    17    34858.0000    34856.0000     1804    0.01%
    238   240    34856.0000    17    34858.0000    34856.0000     1809    0.01%
Elapsed time = 22.39 sec. (12364.26 ticks, tree = 1.66 MB, solutions = 1752)
    261   263    34856.0000    18    34858.0000    34856.0000     1970    0.01%
    262   264    34856.0000    17    34858.0000    34856.0000     1975    0.01%
    263   265    34856.0000    19    34858.0000    34856.0000     1985    0.01%
    264   266    34856.0000    18    34858.0000    34856.0000     1987    0.01%
    265   267    34856.0000    18    34858.0000    34856.0000     1990    0.01%
    266   268    34856.0000    17    34858.0000    34856.0000     1996    0.01%
    267   269    34856.0000    17    34858.0000    34856.0000     2000    0.01%
    268   270    34856.0000    17    34858.0000    34856.0000     2004    0.01%
    269   271    34856.0000    19    34858.0000    34856.0000     2015    0.01%
    270   272    34856.0000    18    34858.0000    34856.0000     2020    0.01%
Elapsed time = 24.80 sec. (13637.72 ticks, tree = 1.91 MB, solutions = 1942)

Root node processing (before b&c):
  Real time             =    0.61 sec. (442.27 ticks)
Sequential b&c:
  Real time             =   25.54 sec. (13878.73 ticks)
                          ------------
Total (root+branch&cut) =   26.15 sec. (14321.00 ticks)
